




































































































73 67 23 53 69 
6 38 8 37 71 40 
21 2 52 39 7 
64 18 10 54 68 
65 28 0 1 26 63 
62 47 75 5 3 
16 55 59 42 11 50 
34 9 13 29 33 19 
43 72 27 44 24 70 
66 31 46 35 25 60 
49 57 22 56 32 12 
74 48 58 41 14 
17 76 61 15 51 
20 45 36 4 30 
